GLPSOL: GLPK LP/MIP Solver, v4.65
Parameter(s) specified in the command line:
 --model solver_drone_multi.mod --data solver_drone_multi.dat --output solution.log
 --log cmd_output.log --tmlim 10
Reading model section from solver_drone_multi.mod...
solver_drone_multi.mod:34: operand preceding != has invalid type
Context:  in 1 .. nb_p , h in 1 .. nb_h : delivery_times [ 1 , h ] !=
MathProg model processing error
